1 1 -2 0
1 -3 -4 0
1 3 1 0
1 5 -4 0
1 -6 -4 0
1 -6 7 0
1 -6 8 0
1 -7 3 0
1 7 5 0
1 7 -1 0
1 -9 10 0
1 -9 -11 0
1 9 -7 0
1 4 12 0
1 2 10 0
1 -13 11 0
1 13 7 0
1 11 14 0
1 11 15 0
1 -11 16 0
1 11 -7 0
1 -17 15 0
1 -17 7 0
1 -17 -18 0
1 -19 15 0
1 19 8 0
1 8 -19 0
1 -8 -11 0
1 -15 20 0
1 -15 -21 0
1 -15 -8 0
1 -15 -17 0
1 22 10 0
1 22 19 0
1 -22 6 0
1 22 -23 0
1 -22 -13 0
1 -22 -5 0
1 -14 24 0
1 -14 -6 0
1 -14 -23 0
1 -14 13 0
1 25 -23 0
1 26 -10 0
1 -26 -25 0
1 27 28 0
1 29 -28 0
1 -29 30 0
1 29 -27 0
1 -29 -18 0
1 -18 29 0
1 -18 -17 0
1 30 -31 0
1 -30 17 0
1 -30 32 0
1 -33 29 0
1 -33 -26 0
1 33 19 0
1 -33 27 0
1 33 -32 0
1 -28 29 0
1 -28 21 0
1 28 27 0
1 28 32 0
1 28 34 0
1 35 -36 0
1 -35 -37 0
1 38 -39 0
1 40 -41 0
1 -40 42 0
1 -40 43 0
1 -44 -45 0
1 44 -41 0
1 44 46 0
1 -44 42 0
1 -44 43 0
1 -44 -47 0
1 -44 -48 0
1 -36 -49 0
1 -36 -16 0
1 36 -40 0
1 -43 -36 0
1 43 -44 0
1 -43 -50 0
1 43 51 0
1 43 -40 0
1 52 -53 0
1 -52 44 0
1 52 38 0
1 52 42 0
1 -52 54 0
1 42 -53 0
1 42 -55 0
1 42 -54 0
1 42 40 0
1 -42 -35 0
1 56 16 0
1 56 -41 0
1 -56 -4 0
1 56 -43 0
1 -56 -54 0
1 -56 -2 0
1 -16 -36 0
1 16 -41 0
1 -16 47 0
1 -16 -48 0
1 -16 -56 0
1 51 -45 0
1 51 -57 0
1 -51 17 0
1 -51 -48 0
1 51 -2 0
1 -12 48 0
1 -12 36 0
1 -12 41 0
1 12 -43 0
1 -12 -2 0
1 -41 -48 0
1 -41 12 0
1 41 -58 0
1 -41 44 0
1 -41 59 0
1 -41 56 0
1 -41 40 0
1 -48 12 0
1 -48 -16 0
1 48 -41 0
1 -48 44 0
1 -48 56 0
1 -45 -44 0
1 45 60 0
1 45 51 0
1 -47 45 0
1 47 61 0
1 -47 -40 0
1 23 4 0
1 -23 -48 0
1 -23 2 0
1 10 41 0
1 10 48 0
1 -10 62 0
1 -63 -64 0
1 -63 14 0
1 63 24 0
1 63 65 0
1 -63 -66 0
1 -63 48 0
1 -63 -67 0
1 24 -29 0
1 -24 -14 0
1 24 41 0
1 24 -57 0
1 24 -66 0
1 24 63 0
1 24 -62 0
1 -68 24 0
1 -68 69 0
1 -68 70 0
1 68 23 0
1 71 -63 0
1 57 -72 0
1 -57 -24 0
1 57 23 0
1 -57 73 0
1 -62 72 0
1 62 12 0
1 62 74 0
1 62 -75 0
1 62 -51 0
1 -21 -14 0
1 -21 28 0
1 21 65 0
1 -21 -8 0
1 -21 -33 0
1 -21 71 0
1 21 67 0
1 -34 14 0
1 -34 -15 0
1 -34 28 0
1 -34 -68 0
1 34 -21 0
1 -34 -22 0
1 34 -8 0
1 -34 71 0
1 -69 -68 0
1 -69 -33 0
1 -69 -67 0
1 -76 -64 0
1 -76 77 0
1 76 65 0
1 -76 78 0
1 -76 -67 0
1 -76 -71 0
1 -66 -24 0
1 66 79 0
1 -66 80 0
1 66 76 0
1 -64 -81 0
1 64 79 0
1 64 -80 0
1 -64 -82 0
1 -64 -69 0
1 -64 21 0
1 -64 -83 0
1 64 -32 0
1 65 79 0
1 65 -74 0
1 -65 83 0
1 -67 79 0
1 -67 74 0
1 -67 -76 0
1 82 20 0
1 82 -66 0
1 82 -78 0
1 82 -18 0
1 -32 -28 0
1 32 18 0
1 -80 84 0
1 -80 31 0
1 84 77 0
1 -84 85 0
1 -84 80 0
1 -84 78 0
1 86 32 0
1 -86 76 0
1 20 15 0
1 -20 -87 0
1 20 69 0
1 78 -82 0
1 78 69 0
1 78 32 0
1 77 -14 0
1 77 88 0
1 -77 -89 0
1 -77 -80 0
1 77 -82 0
1 -77 83 0
1 87 85 0
1 87 79 0
1 -87 90 0
1 87 -86 0
1 91 -20 0
1 91 85 0
1 91 -87 0
1 -91 -86 0
1 -92 -85 0
1 93 -20 0
1 -93 -31 0
1 93 86 0
1 -93 94 0
1 93 95 0
1 95 -92 0
1 -95 -84 0
1 31 30 0
1 31 91 0
1 31 95 0
1 -90 -96 0
1 90 97 0
1 90 -91 0
1 -85 93 0
1 37 39 0
1 -39 -98 0
1 -39 38 0
1 -39 -99 0
1 100 -101 0
1 -100 -102 0
1 100 103 0
1 46 -104 0
1 46 44 0
1 -46 103 0
1 -46 105 0
1 105 98 0
1 105 106 0
1 98 106 0
1 -98 46 0
1 -99 -104 0
1 99 -39 0
1 104 37 0
1 -54 52 0
1 54 102 0
1 -54 103 0
1 -106 -98 0
1 -106 -101 0
1 106 102 0
1 106 54 0
1 -55 -107 0
1 -55 108 0
1 55 -42 0
1 -53 -105 0
1 -53 -55 0
1 103 -49 0
1 103 102 0
1 -103 -55 0
1 -103 109 0
1 102 110 0
1 -102 -46 0
1 102 55 0
1 102 -54 0
1 111 53 0
1 -111 -112 0
1 -111 -55 0
1 101 112 0
1 101 54 0
1 101 100 0
1 -50 36 0
1 50 -108 0
1 -50 47 0
1 -50 113 0
1 -49 -107 0
1 -49 -52 0
1 49 10 0
1 49 36 0
1 49 108 0
1 49 42 0
1 49 43 0
1 -49 47 0
1 49 103 0
1 60 107 0
1 60 -114 0
1 -60 108 0
1 60 63 0
1 -60 -103 0
1 114 -115 0
1 114 -45 0
1 -114 -102 0
1 -114 116 0
1 114 103 0
1 -107 -75 0
1 107 -50 0
1 117 -72 0
1 -117 49 0
1 -117 -75 0
1 117 -118 0
1 113 -53 0
1 113 119 0
1 113 112 0
1 -113 60 0
1 -113 -120 0
1 108 -121 0
1 -108 -55 0
1 108 -120 0
1 108 -113 0
1 108 122 0
1 -59 107 0
1 -59 115 0
1 -59 123 0
1 -59 -117 0
1 -59 -21 0
1 -59 116 0
1 59 -47 0
1 59 -48 0
1 59 -62 0
1 72 107 0
1 72 -45 0
1 72 59 0
1 -72 -116 0
1 -75 115 0
1 75 -123 0
1 -75 -58 0
1 -75 57 0
1 -75 -116 0
1 -75 -62 0
1 73 123 0
1 -73 -75 0
1 73 117 0
1 73 -124 0
1 -73 -122 0
1 123 114 0
1 123 -36 0
1 123 59 0
1 123 -125 0
1 123 -73 0
1 124 126 0
1 -124 -74 0
1 -124 -59 0
1 -124 60 0
1 124 -127 0
1 115 72 0
1 115 52 0
1 -115 128 0
1 -115 129 0
1 115 75 0
1 115 116 0
1 -115 60 0
1 115 130 0
1 116 -72 0
1 116 -59 0
1 -116 42 0
1 -116 131 0
1 -116 -120 0
1 74 57 0
1 -74 -129 0
1 74 125 0
1 125 132 0
1 125 -68 0
1 125 74 0
1 125 -65 0
1 -125 61 0
1 125 -120 0
1 133 -123 0
1 -133 -132 0
1 133 70 0
1 -133 61 0
1 -133 -134 0
1 133 -135 0
1 -133 -136 0
1 135 132 0
1 -135 -58 0
1 -135 124 0
1 -135 134 0
1 135 -84 0
1 135 -137 0
1 135 136 0
1 135 -67 0
1 -58 134 0
1 -58 -41 0
1 58 -75 0
1 58 -73 0
1 134 135 0
1 132 126 0
1 -132 74 0
1 132 75 0
1 132 -138 0
1 132 61 0
1 -132 -139 0
1 61 140 0
1 61 141 0
1 61 142 0
1 -61 133 0
1 -61 -47 0
1 -79 -64 0
1 79 134 0
1 79 87 0
1 -79 -58 0
1 79 -65 0
1 -79 66 0
1 79 137 0
1 79 -136 0
1 83 -64 0
1 -83 77 0
1 -83 -79 0
1 -83 143 0
1 -83 70 0
1 -144 142 0
1 144 145 0
1 -144 -146 0
1 -144 134 0
1 144 -147 0
1 -94 -81 0
1 -94 -143 0
1 94 145 0
1 -94 -146 0
1 -94 -78 0
1 94 -93 0
1 -94 148 0
1 70 -96 0
1 -70 79 0
1 -70 133 0
1 -70 -83 0
1 -136 -96 0
1 -136 149 0
1 -136 94 0
1 -143 -57 0
1 143 -150 0
1 143 138 0
1 -143 135 0
1 -137 151 0
1 137 140 0
1 -137 -144 0
1 137 143 0
1 -137 94 0
1 89 -152 0
1 89 -86 0
1 152 81 0
1 -152 -85 0
1 152 138 0
1 -152 147 0
1 -96 153 0
1 96 88 0
1 -96 -85 0
1 96 145 0
1 -96 -97 0
1 -96 136 0
1 -96 147 0
1 97 -154 0
1 97 -155 0
1 -97 146 0
1 -146 81 0
1 81 -89 0
1 81 -144 0
1 81 -156 0
1 -81 94 0
1 81 157 0
1 145 -94 0
1 -147 151 0
1 158 -85 0
1 -159 -88 0
1 159 149 0
1 -160 -154 0
1 -160 161 0
1 -160 -162 0
1 160 163 0
1 -164 81 0
1 164 -154 0
1 164 162 0
1 -164 165 0
1 -163 158 0
1 163 -154 0
1 -163 166 0
1 -163 167 0
1 154 96 0
1 154 166 0
1 154 -164 0
1 154 -97 0
1 -154 -168 0
1 -154 160 0
1 -169 -96 0
1 -169 -156 0
1 169 -164 0
1 -169 159 0
1 169 -157 0
1 169 160 0
1 -88 77 0
1 88 -170 0
1 -88 164 0
1 -88 -160 0
1 168 -167 0
1 167 -154 0
1 167 -162 0
1 -171 -161 0
1 -171 -166 0
1 166 171 0
1 165 -162 0
1 -165 -160 0
1 162 -31 0
1 162 -164 0
1 -162 -160 0
1 172 -161 0
1 172 164 0
1 -172 -160 0
1 -161 -167 0
1 -161 172 0
1 -161 171 0
1 112 102 0
1 112 -108 0
1 112 173 0
1 -112 174 0
1 -112 111 0
1 112 113 0
1 110 101 0
1 -110 174 0
1 110 -111 0
1 -119 75 0
1 -119 175 0
1 -119 122 0
1 122 176 0
1 174 -177 0
1 174 -122 0
1 -178 179 0
1 -178 112 0
1 -173 110 0
1 -173 -119 0
1 -173 122 0
1 -180 110 0
1 -180 -122 0
1 129 107 0
1 129 -178 0
1 129 181 0
1 -129 117 0
1 129 175 0
1 -120 116 0
1 -120 175 0
1 182 118 0
1 182 -116 0
1 -182 130 0
1 -130 183 0
1 -130 -115 0
1 130 -182 0
1 130 176 0
1 130 118 0
1 -130 -135 0
1 -130 175 0
1 -130 -109 0
1 130 184 0
1 -176 -126 0
1 176 -102 0
1 175 129 0
1 175 119 0
1 -175 185 0
1 175 120 0
1 -181 -186 0
1 -181 -101 0
1 -126 176 0
1 126 -61 0
1 126 139 0
1 139 183 0
1 139 -132 0
1 139 176 0
1 139 118 0
1 -139 -184 0
1 -142 -128 0
1 142 -176 0
1 142 127 0
1 -142 -109 0
1 -148 -128 0
1 148 -187 0
1 148 132 0
1 148 -142 0
1 183 188 0
1 -183 153 0
1 183 189 0
1 -183 155 0
1 183 138 0
1 183 148 0
1 118 -140 0
1 118 -126 0
1 -118 -189 0
1 118 190 0
1 118 138 0
1 -118 -130 0
1 184 191 0
1 -184 142 0
1 -184 -148 0
1 -184 -139 0
1 184 130 0
1 121 192 0
1 -121 -186 0
1 -121 -108 0
1 -121 189 0
1 140 186 0
1 140 131 0
1 140 -134 0
1 -138 -140 0
1 -138 187 0
1 -138 -58 0
1 -138 143 0
1 138 -152 0
1 -138 -134 0
1 -153 192 0
1 -153 -193 0
1 153 143 0
1 -153 194 0
1 155 -195 0
1 155 143 0
1 155 -97 0
1 -155 127 0
1 -155 -137 0
1 187 151 0
1 -187 -153 0
1 187 149 0
1 187 138 0
1 127 140 0
1 127 -187 0
1 -127 142 0
1 127 196 0
1 127 -197 0
1 127 -155 0
1 -127 198 0
1 -128 -142 0
1 -128 -199 0
1 -128 -189 0
1 -128 -155 0
1 128 -138 0
1 -131 200 0
1 131 153 0
1 -131 140 0
1 -131 155 0
1 -131 -116 0
1 -151 -187 0
1 151 195 0
1 151 70 0
1 151 -149 0
1 -151 -145 0
1 149 193 0
1 -149 -194 0
1 -198 -195 0
1 198 197 0
1 -198 145 0
1 198 -194 0
1 -198 201 0
1 197 -193 0
1 -197 -202 0
1 197 -203 0
1 -197 -147 0
1 193 -204 0
1 -193 198 0
1 194 151 0
1 -194 156 0
1 -194 -134 0
1 195 -151 0
1 195 -205 0
1 -141 -195 0
1 157 193 0
1 156 -167 0
1 156 201 0
1 -156 -147 0
1 204 170 0
1 -204 150 0
1 -204 202 0
1 170 -88 0
1 170 193 0
1 -170 -169 0
1 170 -203 0
1 -202 70 0
1 -202 -197 0
1 -203 -156 0
1 -203 202 0
1 -203 -198 0
1 -150 170 0
1 150 156 0
1 201 156 0
1 201 150 0
1 201 204 0
1 186 -206 0
1 -186 -177 0
1 186 184 0
1 185 -176 0
1 -185 121 0
1 -185 -138 0
1 -185 207 0
1 192 207 0
1 208 -155 0
1 -208 207 0
1 208 -209 0
1 -177 -188 0
1 177 -192 0
1 -177 -186 0
1 177 179 0
1 177 -189 0
1 177 208 0
1 -179 -200 0
1 -179 -188 0
1 179 -199 0
1 -179 -189 0
1 179 185 0
1 -207 173 0
1 -206 -192 0
1 206 -186 0
1 -206 207 0
1 -206 185 0
1 -188 -121 0
1 188 210 0
1 -189 -188 0
1 189 211 0
1 189 121 0
1 189 149 0
1 200 -191 0
1 -200 -211 0
1 200 190 0
1 -200 -210 0
1 199 -128 0
1 -199 179 0
1 -199 -211 0
1 199 212 0
1 -199 190 0
1 210 -200 0
1 -210 -188 0
1 210 211 0
1 210 109 0
1 -211 188 0
1 -211 -176 0
1 -211 196 0
1 -211 189 0
1 211 213 0
1 -211 -210 0
1 -209 189 0
1 209 -175 0
1 214 -209 0
1 -196 -215 0
1 196 128 0
1 -196 156 0
1 196 212 0
1 196 -127 0
1 196 -141 0
1 -196 -210 0
1 213 215 0
1 213 205 0
1 -213 204 0
1 205 191 0
1 205 -195 0
1 205 -170 0
1 -205 212 0
1 -205 -213 0
1 215 -196 0
1 -215 199 0
1 -215 -190 0
1 190 -200 0
1 190 -196 0
1 190 118 0
1 -191 213 0
1 -212 -213 0
